IPOPT.OUT
This is Ipopt version 3.10.0, running with linear solver ma27.

Number of nonzeros in equality constraint Jacobian...:        0
Number of nonzeros in inequality constraint Jacobian.:       48
Number of nonzeros in Lagrangian Hessian.............:        0

Total number of variables............................:        6
                     variables with only lower bounds:        3
                variables with lower and upper bounds:        3
                     variables with only upper bounds:        0
Total number of equality constraints.................:        0
Total number of inequality constraints...............:        8
        inequality constraints with only lower bounds:        0
   inequality constraints with lower and upper bounds:        0
        inequality constraints with only upper bounds:        8

iter    objective    inf_pr   inf_du lg(mu)  ||d||  lg(rg) alpha_du alpha_pr  ls
   0  3.8600876e+00 7.75e+00 1.08e+00   0.0 0.00e+00    -  0.00e+00 0.00e+00   0
   1  6.2659687e+00 3.81e+00 4.35e+00  -0.4 3.18e+00    -  5.32e-01 1.00e+00f  1
   2  7.7256538e+00 2.31e+00 1.83e+01  -0.3 1.82e+00    -  6.60e-01 9.49e-01h  1
   3  9.5386779e+00 1.21e+00 3.28e+00  -0.3 1.52e+00    -  1.00e+00 5.86e-01h  1
   4  1.3871235e+01 4.52e-01 7.14e+00  -0.6 2.56e+00    -  8.04e-01 9.26e-01h  1
   5  1.5121083e+01 2.77e-01 1.24e+00  -0.9 1.48e+00    -  1.00e+00 5.26e-01h  1
   6  1.7567325e+01 7.29e-02 4.79e+00  -1.5 1.24e+00    -  1.00e+00 9.44e-01h  1
   7  1.7884416e+01 4.21e-02 2.30e+00  -2.5 4.60e-01    -  1.00e+00 5.05e-01h  1
   8  1.8366012e+01 1.00e-02 1.38e+00  -2.8 4.47e-01    -  1.00e+00 9.32e-01h  1
   9  1.8476448e+01 3.75e-03 3.81e-01  -3.2 3.07e-01    -  1.00e+00 8.87e-01h  1
iter    objective    inf_pr   inf_du lg(mu)  ||d||  lg(rg) alpha_du alpha_pr  ls
  10  1.8588551e+01 1.02e-03 6.86e-01  -4.5 2.87e-01    -  9.67e-01 1.00e+00H  1
  11  1.8575032e+01 2.70e-02 7.47e-01  -4.6 4.16e-01    -  1.00e+00 1.00e+00h  1
  12  1.8752082e+01 0.00e+00 1.56e+00  -4.7 1.54e-01    -  1.00e+00 1.00e+00h  1
  13  1.8680657e+01 8.22e-03 1.20e-01  -4.7 8.53e-02    -  1.00e+00 1.00e+00h  1
  14  1.8696662e+01 9.05e-04 1.81e-01  -4.7 3.21e-02    -  1.00e+00 1.00e+00h  1
  15  1.8696112e+01 4.24e-04 3.46e-01  -5.7 8.02e-03    -  1.00e+00 5.00e-01h  2
  16  1.8693581e+01 2.91e-03 3.45e-01  -5.6 1.73e-02    -  1.00e+00 9.95e-01H  1
  17  1.8687500e+01 4.14e-03 4.46e-01  -6.3 1.21e-01    -  1.00e+00 1.00e+00H  1
  18  1.8683710e+01 7.48e-03 7.17e-02  -6.0 8.86e-02    -  1.00e+00 1.00e+00h  1
  19  1.8699334e+01 3.01e-03 6.68e-01  -6.2 3.44e-02    -  1.00e+00 1.00e+00h  1
iter    objective    inf_pr   inf_du lg(mu)  ||d||  lg(rg) alpha_du alpha_pr  ls
  20  1.8696272e+01 4.78e-03 7.47e-01  -6.2 7.28e-01    -  3.06e-01 2.41e-02h  6
  21  1.8706729e+01 4.38e-04 1.64e-01  -6.2 1.15e-02    -  1.00e+00 1.00e+00h  1
  22  1.8706411e+01 2.15e-04 1.96e-01  -6.2 7.14e-03    -  1.00e+00 1.00e+00h  1
  23  1.8709709e+01 0.00e+00 1.06e-01  -6.2 1.55e-02    -  1.00e+00 1.00e+00h  1
  24  1.8697354e+01 1.30e-03 9.85e-02  -6.2 3.87e-03    -  1.00e+00 1.00e+00h  1
  25  1.8700224e+01 2.42e-03 3.40e-01  -6.2 2.52e-02    -  1.00e+00 1.00e+00h  1
  26  1.8707730e+01 3.94e-04 1.64e-01  -6.2 7.49e-03    -  1.00e+00 1.00e+00h  1
  27  1.8701305e+01 0.00e+00 7.84e-02  -6.2 9.62e-03    -  1.00e+00 1.00e+00h  1
  28  1.8697628e+01 5.62e-04 4.05e-01  -6.9 5.47e-03    -  1.00e+00 1.00e+00H  1
  29  1.8697267e+01 1.13e-03 1.13e-01  -7.6 5.36e-03    -  1.00e+00 1.00e+00h  1
iter    objective    inf_pr   inf_du lg(mu)  ||d||  lg(rg) alpha_du alpha_pr  ls
  30  1.8698734e+01 8.18e-04 1.40e-01  -7.8 1.11e-02    -  1.00e+00 1.00e+00H  1
